Academic license - for non-commercial use only
Changed value of parameter TimeLimit to 600.0
   Prev: 1e+100  Min: 0.0  Max: 1e+100  Default: 1e+100
Optimize a model with 804 rows, 162006 columns and 323610 nonzeros
Variable types: 0 continuous, 162006 integer (162006 binary)
Coefficient statistics:
  Matrix range     [1e+00, 8e+03]
  Objective range  [1e+00, 1e+00]
  Bounds range     [1e+00, 1e+00]
  RHS range        [1e+00, 1e+00]
Found heuristic solution: objective 288.0000000
Presolve time: 0.40s
Presolved: 804 rows, 162006 columns, 323610 nonzeros
Variable types: 0 continuous, 162006 integer (162006 binary)

Root relaxation: objective 1.320000e+02, 2370 iterations, 0.39 seconds

    Nodes    |    Current Node    |     Objective Bounds      |     Work
 Expl Unexpl |  Obj  Depth IntInf | Incumbent    BestBd   Gap | It/Node Time

     0     0  132.00000    0  190  288.00000  132.00000  54.2%     -    3s
H    0     0                     158.0000000  132.00000  16.5%     -    4s
H    0     0                     147.0000000  132.00000  10.2%     -    4s
H    0     0                     139.0000000  132.00000  5.04%     -    8s
H    0     0                     138.0000000  132.00000  4.35%     -    9s
     0     0  132.00000    0  288  138.00000  132.00000  4.35%     -   11s
     0     0  132.00000    0  312  138.00000  132.00000  4.35%     -   16s
H    0     0                     136.0000000  132.00000  2.94%     -   35s
     0     0  132.00000    0  223  136.00000  132.00000  2.94%     -   35s
     0     0  132.00000    0  203  136.00000  132.00000  2.94%     -   37s
     0     2  132.00000    0  185  136.00000  132.00000  2.94%     -   62s
     7    14  132.00000    3  245  136.00000  132.00000  2.94%   828   65s
    31    33  132.00000    6  246  136.00000  132.00000  2.94%   934   80s
    90    86  132.00000   14  246  136.00000  132.00000  2.94%  1014   87s
   167   169  132.00000   26  246  136.00000  132.00000  2.94%  1024   93s
   310   309  132.00000   46  248  136.00000  132.00000  2.94%   886   99s
   446   446  132.00000   67  237  136.00000  132.00000  2.94%   825  104s
   582   583  132.00000   87  232  136.00000  132.00000  2.94%   777  109s
   724   727  132.00000  109  234  136.00000  132.00000  2.94%   765  120s
   734   736  132.00000  114  224  136.00000  132.00000  2.94%   756  129s
H  752   736                     135.0000000  132.00000  2.22%   740  129s
   866   869  132.00000  133  220  135.00000  132.00000  2.22%   749  135s
  1029  1028  132.00000  153  222  135.00000  132.00000  2.22%   732  142s
  1204  1206  132.00000  181  218  135.00000  132.00000  2.22%   692  169s
H 1229  1206                     134.0000000  132.00000  1.49%   680  169s
  1354  1352  132.00000  202  216  134.00000  132.00000  1.49%   669  176s
H 1365  1352                     133.0000000  132.00000  0.75%   664  176s
  1562  1527  132.00000  136  203  133.00000  132.00000  0.75%   631  184s
  1564  1528  132.00000  115  190  133.00000  132.00000  0.75%   630  198s
  1565  1529  132.00000   38  189  133.00000  132.00000  0.75%   630  281s
  1566  1530  132.00000  117  289  133.00000  132.00000  0.75%   629  381s
  1567  1530  132.00000   22  202  133.00000  132.00000  0.75%   629  395s
  1569  1532  132.00000  125  225  133.00000  132.00000  0.75%   628  412s
  1570  1532  132.00000  112  292  133.00000  132.00000  0.75%   628  417s
  1571  1533  132.00000  108  223  133.00000  132.00000  0.75%   627  432s
  1572  1534  132.00000  126  305  133.00000  132.00000  0.75%   627  437s
  1573  1534  132.00000  143  222  133.00000  132.00000  0.75%   627  461s
  1574  1535  132.00000   97  211  133.00000  132.00000  0.75%   626  471s
  1575  1536  132.00000   14  211  133.00000  132.00000  0.75%   626  491s
  1576  1536 infeasible   12       133.00000  132.00000  0.75%   697  600s

Cutting planes:
  Gomory: 12
  Cover: 154
  Clique: 30
  MIR: 21
  StrongCG: 27
  Flow cover: 54

Explored 1577 nodes (1149690 simplex iterations) in 600.03 seconds
Thread count was 12 (of 12 available processors)

Solution count 9: 133 134 135 ... 288

Time limit reached
Best objective 1.330000000000e+02, best bound 1.320000000000e+02, gap 0.7519%
y[2]
y[3]
y[4]
y[6]
y[76]
y[77]
y[78]
y[79]
y[81]
y[82]
y[83]
y[84]
y[86]
y[88]
y[89]
y[90]
y[92]
y[96]
y[98]
y[99]
y[100]
y[101]
y[102]
y[103]
y[104]
y[105]
y[106]
y[107]
y[108]
y[109]
y[110]
y[111]
y[112]
y[113]
y[114]
y[115]
y[117]
y[119]
y[121]
y[122]
y[125]
y[127]
y[129]
y[130]
y[132]
y[133]
y[134]
y[136]
y[137]
y[138]
y[139]
y[143]
y[144]
y[145]
y[184]
y[186]
y[187]
y[190]
y[192]
y[194]
y[196]
y[197]
y[198]
y[199]
y[201]
y[202]
y[205]
y[208]
y[210]
y[213]
y[214]
y[215]
y[216]
y[217]
y[256]
y[257]
y[258]
y[259]
y[260]
y[261]
y[262]
y[269]
y[271]
y[272]
y[273]
y[274]
y[275]
y[277]
y[279]
y[281]
y[282]
y[283]
y[284]
y[286]
y[289]
y[290]
y[292]
y[293]
y[294]
y[295]
y[297]
y[300]
y[301]
y[302]
y[304]
y[305]
y[307]
y[308]
y[309]
y[310]
y[311]
y[312]
y[314]
y[315]
y[316]
y[317]
y[318]
y[320]
y[321]
y[323]
y[324]
y[325]
y[389]
y[390]
y[391]
y[392]
y[393]
y[394]
y[395]
y[396]
y[397]
y[398]
y[399]
x[2][101]
x[2][155]
x[2][359]
x[3][98]
x[3][158]
x[3][357]
x[4][128]
x[4][130]
x[6][16]
x[6][231]
x[76][84]
x[76][175]
x[76][371]
x[77][67]
x[77][183]
x[78][4]
x[78][244]
x[79][41]
x[79][202]
x[81][43]
x[81][203]
x[82][100]
x[82][159]
x[82][352]
x[83][88]
x[83][166]
x[84][14]
x[84][233]
x[86][38]
x[86][206]
x[88][9]
x[88][242]
x[89][111]
x[89][140]
x[89][398]
x[90][90]
x[90][164]
x[92][86]
x[92][168]
x[96][33]
x[96][212]
x[98][116]
x[98][145]
x[98][285]
x[99][71]
x[99][179]
x[100][6]
x[100][241]
x[101][37]
x[101][208]
x[102][69]
x[102][181]
x[103][79]
x[103][176]
x[103][397]
x[104][59]
x[104][189]
x[105][26]
x[105][219]
x[106][52]
x[106][192]
x[107][13]
x[107][234]
x[108][57]
x[108][193]
x[108][399]
x[109][103]
x[109][157]
x[109][327]
x[110][110]
x[110][141]
x[111][106]
x[111][150]
x[112][45]
x[112][209]
x[113][76]
x[113][177]
x[114][24]
x[114][222]
x[115][70]
x[115][180]
x[117][42]
x[117][207]
x[119][55]
x[119][195]
x[121][99]
x[121][161]
x[121][311]
x[122][25]
x[122][223]
x[125][74]
x[125][185]
x[125][383]
x[127][35]
x[127][210]
x[129][51]
x[129][197]
x[130][105]
x[130][154]
x[130][373]
x[132][77]
x[132][205]
x[132][278]
x[133][113]
x[133][147]
x[133][332]
x[134][122]
x[134][131]
x[134][401]
x[136][21]
x[136][232]
x[137][123]
x[137][137]
x[137][374]
x[138][89]
x[138][167]
x[139][18]
x[139][236]
x[143][40]
x[143][213]
x[144][112]
x[144][149]
x[144][326]
x[144][388]
x[145][104]
x[145][152]
x[145][396]
x[184][19]
x[184][237]
x[186][66]
x[186][204]
x[186][340]
x[187][1]
x[187][250]
x[190][7]
x[190][240]
x[192][129]
x[192][160]
x[192][190]
x[192][356]
x[192][391]
x[194][126]
x[194][142]
x[194][238]
x[194][390]
x[196][2]
x[196][252]
x[197][60]
x[197][191]
x[197][400]
x[198][82]
x[198][187]
x[198][361]
x[198][384]
x[199][34]
x[199][214]
x[201][115]
x[201][165]
x[201][220]
x[201][387]
x[202][36]
x[202][224]
x[202][389]
x[205][23]
x[205][235]
x[208][80]
x[208][178]
x[208][377]
x[210][78]
x[210][226]
x[210][255]
x[213][68]
x[213][225]
x[213][303]
x[214][109]
x[214][201]
x[214][245]
x[214][267]
x[215][246]
x[215][256]
x[215][260]
x[215][263]
x[215][279]
x[215][283]
x[215][286]
x[215][294]
x[215][309]
x[215][312]
x[215][314]
x[215][319]
x[215][325]
x[215][338]
x[215][343]
x[215][346]
x[215][349]
x[215][360]
x[215][378]
x[215][380]
x[215][392]
x[216][107]
x[216][200]
x[216][271]
x[216][284]
x[216][300]
x[217][5]
x[217][289]
x[217][315]
x[256][17]
x[256][229]
x[257][73]
x[257][268]
x[257][293]
x[257][295]
x[257][381]
x[258][54]
x[258][243]
x[258][273]
x[259][97]
x[259][156]
x[260][44]
x[260][230]
x[260][354]
x[261][64]
x[261][184]
x[262][124]
x[262][135]
x[262][341]
x[262][342]
x[269][108]
x[269][151]
x[271][94]
x[271][194]
x[271][265]
x[271][365]
x[272][11]
x[272][264]
x[273][93]
x[273][172]
x[273][322]
x[274][125]
x[274][143]
x[274][288]
x[274][297]
x[274][363]
x[275][30]
x[275][272]
x[275][310]
x[275][386]
x[277][0]
x[277][251]
x[279][133]
x[279][136]
x[279][280]
x[279][290]
x[279][335]
x[281][29]
x[281][248]
x[281][330]
x[282][83]
x[282][211]
x[282][323]
x[282][328]
x[282][333]
x[283][91]
x[283][186]
x[283][318]
x[283][376]
x[284][49]
x[284][199]
x[286][27]
x[286][249]
x[286][344]
x[289][50]
x[289][215]
x[289][358]
x[290][15]
x[290][239]
x[292][3]
x[292][247]
x[293][22]
x[293][227]
x[294][56]
x[294][217]
x[294][375]
x[295][81]
x[295][182]
x[297][72]
x[297][253]
x[297][307]
x[297][317]
x[300][58]
x[300][292]
x[300][321]
x[300][324]
x[300][353]
x[300][366]
x[301][85]
x[301][274]
x[301][281]
x[301][331]
x[301][334]
x[301][350]
x[301][382]
x[302][114]
x[302][139]
x[304][120]
x[304][144]
x[304][282]
x[305][28]
x[305][261]
x[305][347]
x[305][367]
x[307][127]
x[307][138]
x[307][320]
x[307][351]
x[307][370]
x[308][20]
x[308][257]
x[308][364]
x[309][63]
x[309][221]
x[309][372]
x[309][379]
x[310][102]
x[310][171]
x[310][259]
x[311][10]
x[311][275]
x[311][306]
x[312][75]
x[312][196]
x[312][362]
x[312][368]
x[314][87]
x[314][169]
x[314][369]
x[315][31]
x[315][218]
x[316][153]
x[316][162]
x[316][174]
x[316][198]
x[317][48]
x[317][269]
x[317][270]
x[318][32]
x[318][228]
x[318][395]
x[320][46]
x[320][301]
x[320][302]
x[320][313]
x[320][385]
x[321][39]
x[321][216]
x[321][394]
x[323][119]
x[323][146]
x[323][276]
x[324][8]
x[324][291]
x[324][304]
x[325][96]
x[325][170]
x[325][336]
x[325][355]
x[389][53]
x[389][254]
x[389][316]
x[389][337]
x[390][61]
x[390][298]
x[390][299]
x[390][308]
x[390][348]
x[391][12]
x[391][287]
x[391][296]
x[392][65]
x[392][188]
x[393][62]
x[393][258]
x[393][262]
x[394][95]
x[394][163]
x[394][339]
x[395][92]
x[395][173]
x[395][345]
x[395][393]
x[396][47]
x[396][266]
x[396][305]
x[396][329]
x[397][117]
x[397][148]
x[397][277]
x[398][118]
x[398][134]
x[399][121]
x[399][132]
Obj: 133.0
